Data path: /scratch/opt/lxu/CFLG/benchmarks/random_A
Instance: r_15_0.2_22.txt
Result path: /scratch/opt/lxu/CFLG/results/random_A
Solver: Gurobi
Time limit: 3600
Formulation: EVFP
Cover: Small
julia --project=. src/main.jl /scratch/opt/lxu/CFLG/benchmarks/random_A r_15_0.2_22.txt /scratch/opt/lxu/CFLG/results/random_A Gurobi 3600 EVFP Small
The latest version of Julia in the `release` channel is 1.11.5+0.x64.linux.gnu. You currently have `1.11.4+0.x64.linux.gnu` installed. Run:

  juliaup update

in your terminal shell to install Julia 1.11.5+0.x64.linux.gnu and update the `release` channel to that version.
/scratch/opt/lxu/CFLG/benchmarks/random_A Gurobi 3600.0 /scratch/opt/lxu/CFLG/results/random_A r_15_0.2_22.txt EVFP Small
/scratch/opt/lxu/CFLG/benchmarks/random_A/r_15_0.2_22.txt

 read graph
data loaded


after absorb:12 15

max_piece:3
problem_graph/original graph: node: 25/15 edge: 32/22 dlt: 0.5962790283562555 break_avg_len: 0.4099418319949255 break_max_len: 0.568234744952564elapsed CPU time: 0.057892 seconds
Set parameter TokenServer to value "solice01.zib.de"
Set parameter Threads to value 1
Set parameter OutputFlag to value 1
Set parameter MIPGap to value 0.0001
Set parameter MIPGapAbs to value 1
Set parameter TimeLimit to value 3599.942108
vertex var

 model loaded

Gurobi Optimizer version 12.0.1 build v12.0.1rc0 (linux64 - "Debian GNU/Linux 12 (bookworm)")

CPU model: Intel(R) Xeon(R) Gold 5122 CPU @ 3.60GHz, instruction set [SSE2|AVX|AVX2|AVX512]
Thread count: 8 physical cores, 16 logical processors, using up to 1 threads

Non-default parameters:
TimeLimit  3599.942108
MIPGapAbs  1
Threads  1

Optimize a model with 993 rows, 500 columns and 2692 nonzeros
Model fingerprint: 0x0be17505
Variable types: 57 continuous, 443 integer (443 binary)
Coefficient statistics:
  Matrix range     [3e-02, 1e+00]
  Objective range  [1e+00, 1e+00]
  Bounds range     [3e-01, 6e-01]
  RHS range        [3e-01, 4e+00]
Found heuristic solution: objective 32.0000000
Presolve removed 199 rows and 44 columns
Presolve time: 0.03s
Presolved: 794 rows, 456 columns, 3843 nonzeros
Variable types: 57 continuous, 399 integer (399 binary)

Root relaxation: objective 6.000000e+00, 415 iterations, 0.01 seconds (0.01 work units)

    Nodes    |    Current Node    |     Objective Bounds      |     Work
 Expl Unexpl |  Obj  Depth IntInf | Incumbent    BestBd   Gap | It/Node Time

     0     0    6.00000    0   70   32.00000    6.00000  81.2%     -    0s
H    0     0                      11.0000000    6.00000  45.5%     -    0s
H    0     0                      10.0000000    6.00000  40.0%     -    0s
     0     0    6.05606    0  133   10.00000    6.05606  39.4%     -    0s
     0     0    6.07192    0  133   10.00000    6.07192  39.3%     -    0s
     0     0    6.16667    0  114   10.00000    6.16667  38.3%     -    0s
H    0     0                       9.0000000    6.16667  31.5%     -    0s
     0     0    6.50000    0  119    9.00000    6.50000  27.8%     -    0s
     0     0    6.50000    0  102    9.00000    6.50000  27.8%     -    0s
     0     0    6.50000    0  117    9.00000    6.50000  27.8%     -    0s
     0     0    6.50000    0   88    9.00000    6.50000  27.8%     -    0s
     0     0    6.50000    0   78    9.00000    6.50000  27.8%     -    0s
     0     0    6.50000    0   77    9.00000    6.50000  27.8%     -    0s
     0     0    6.50000    0   81    9.00000    6.50000  27.8%     -    0s
     0     0    6.50000    0   64    9.00000    6.50000  27.8%     -    0s
H    0     0                       8.0000000    6.50000  18.8%     -    0s
     0     0    6.50000    0   50    8.00000    6.50000  18.8%     -    0s
     0     0    6.50000    0   95    8.00000    6.50000  18.8%     -    0s
     0     0    6.50000    0   92    8.00000    6.50000  18.8%     -    0s
     0     0    6.50000    0   84    8.00000    6.50000  18.8%     -    0s
     0     0    6.50000    0  118    8.00000    6.50000  18.8%     -    0s
     0     0    6.50000    0   73    8.00000    6.50000  18.8%     -    0s
     0     0    6.50000    0   32    8.00000    6.50000  18.8%     -    0s
     0     2    6.50000    0   32    8.00000    6.50000  18.8%     -    0s

Cutting planes:
  Gomory: 1
  Cover: 14
  Implied bound: 20
  Clique: 3
  MIR: 35
  StrongCG: 1
  Flow cover: 27
  GUB cover: 13
  Zero half: 7
  RLT: 6
  Relax-and-lift: 14
  BQP: 2

Explored 134 nodes (12187 simplex iterations) in 0.68 seconds (0.48 work units)
Thread count was 1 (of 16 available processors)

Solution count 5: 8 9 10 ... 32

Optimal solution found (tolerance 1.00e-04)
Best objective 8.000000000000e+00, best bound 7.000000000000e+00, gap 12.5000%

User-callback calls 1244, time in user-callback 0.01 sec
Stat(MathOptInterface.OPTIMAL, 8.0, 7.000000000000001, 0.12499999999999989, 1.0e-323, 0.057892, 0.6802070140838623, 134, Main.CFLG.EVFP, "", #undef)
